10	5
0	3	3	2	1
1	1	4
2	1	7
3	3	8	6	10
4	2	7	8
5	2	10	6
6	1	9
7	1	5
8	1	11
9	1	11
10	1	11
11	0
0	0	0	0	0	0	0
1	4	1	1	3	5	0
2	4	0	0	1	4	0
3	1	1	1	0	0	5
4	1	2	1	4	3	0
5	1	3	5	5	4	4
6	3	2	4	3	1	3
7	2	4	5	1	5	5
8	9	4	2	1	5	2
9	9	2	0	0	2	0
10	3	0	0	5	2	4
11	0	0	0	0	0	0
4	5	5	5	5
